[[39, 72, 12, 17, 40, 32, 9, 25, 55, 18, 50, 44, 3, 24, 49, 51, 16, 33, 63, 23, 56, 43, 41, 42, 64, 22, 73, 62, 28, 74, 61, 21, 47, 69, 36], [71, 60, 70, 20, 37, 5, 15, 57, 13, 52, 27, 45, 29, 48, 30, 2, 6, 68, 75, 4, 76, 26, 67, 34, 46, 7, 35, 8, 19, 54, 53, 14, 59, 66, 11, 65, 38, 10, 31, 58]]